Set parameter TokenServer to value "hpc-licenses.hpcc.usc.edu"
Set parameter TimeLimit to value 3600
Gurobi Optimizer version 9.5.1 build v9.5.1rc2 (linux64)
Thread count: 20 physical cores, 20 logical processors, using up to 20 threads
Optimize a model with 6007 rows, 4529 columns and 24534 nonzeros
Model fingerprint: 0x8e46e434
Variable types: 4506 continuous, 23 integer (23 binary)
Coefficient statistics:
  Matrix range     [1e+00, 1e+00]
  Objective range  [6e-03, 1e+00]
  Bounds range     [1e+00, 1e+00]
  RHS range        [1e+00, 2e+02]
Found heuristic solution: objective 279.4341235
Presolve removed 1520 rows and 1515 columns
Presolve time: 0.07s
Presolved: 4487 rows, 3014 columns, 21975 nonzeros
Variable types: 2994 continuous, 20 integer (20 binary)

Root relaxation: objective 2.892466e+02, 3031 iterations, 0.17 seconds (0.21 work units)

    Nodes    |    Current Node    |     Objective Bounds      |     Work
 Expl Unexpl |  Obj  Depth IntInf | Incumbent    BestBd   Gap | It/Node Time

     0     0  289.24663    0    2  279.43412  289.24663  3.51%     -    0s
     0     0  289.17115    0    2  279.43412  289.17115  3.48%     -    0s
H    0     0                     280.1019604  289.17115  3.24%     -    0s
     0     0  288.63134    0    4  280.10196  288.63134  3.05%     -    0s
     0     0  288.63134    0    2  280.10196  288.63134  3.05%     -    0s
H    0     0                     287.3841249  288.63134  0.43%     -    0s
     0     0  288.55599    0    4  287.38412  288.55599  0.41%     -    0s
     0     0  288.55599    0    2  287.38412  288.55599  0.41%     -    0s
     0     0  288.55599    0    2  287.38412  288.55599  0.41%     -    1s
     0     0  288.55599    0    3  287.38412  288.55599  0.41%     -    1s
     0     0  288.55599    0    2  287.38412  288.55599  0.41%     -    1s
H    0     0                     288.5473327  288.55599  0.00%     -    1s
     0     0  288.55599    0    4  288.54733  288.55599  0.00%     -    1s

Cutting planes:
  Gomory: 3
  MIR: 512
  RLT: 4

Explored 1 nodes (5567 simplex iterations) in 1.49 seconds (0.74 work units)
Thread count was 20 (of 20 available processors)

Solution count 4: 288.547 287.384 280.102 279.434 

Optimal solution found (tolerance 1.00e-04)
Best objective 2.885473326533e+02, best bound 2.885559883751e+02, gap 0.0030%



#########node  1
V1.7
#########node  2
0.0,1.0
#########node  3
1.0,0.0


Total Solving Time 1.8645479679107666
obj value 288.547332653263
Policy Regret train (Sum) 2.0340319405192426
Best Treatment Found train (%) 82.8
treatment classification acc train (%) 47.8
Policy Regret test (Sum) 23.056351074388168
Best Treatment Found test (%) 86.09
treatment classification acc test (%) 50.43
